(set-option :print-success false)
(set-logic QF_UF)
(declare-sort x40 0)
(declare-sort x50 0)
(declare-fun x86 () x50)
(declare-fun x1 (x50 x50) x50)
(declare-fun x113 () x50)
(declare-fun x108 () x50)
(declare-fun x7 () x50)
(declare-fun x72 () x50)
(assert (not (and (= (x1 x113 x108) x72) (and (= x7 (x1 x86 x108)) (and (= (x1 x72 x72) x86) (= x113 (x1 x108 x108)))))))
(assert (not (and (= (x1 x108 x113) x86) (and (= x72 (x1 x7 x113)) (and (= (x1 x113 x113) x108) (= x7 (x1 x86 x86)))))))
(assert (not (and (= x86 (x1 x72 x108)) (and (= (x1 x113 x108) x7) (and (= x72 (x1 x108 x108)) (= (x1 x86 x86) x113))))))
(assert (not (and (= x113 (x1 x7 x86)) (and (= x108 (x1 x72 x86)) (and (= x7 (x1 x86 x86)) (= x72 (x1 x113 x113)))))))
(assert (not (and (and (= (x1 x113 x108) x86) (and (= (x1 x72 x72) x113) (= x7 (x1 x108 x108)))) (= x72 (x1 x7 x108)))))
(assert (not (and (and (= x113 (x1 x72 x108)) (and (= x86 (x1 x108 x108)) (= (x1 x7 x7) x72))) (= (x1 x86 x108) x7))))
(assert (not (and (and (= x113 (x1 x72 x86)) (and (= x7 (x1 x86 x86)) (= x72 (x1 x108 x108)))) (= (x1 x7 x86) x108))))
(assert (not (and (and (and (= x86 (x1 x7 x7)) (= x113 (x1 x72 x72))) (= x108 (x1 x113 x7))) (= x72 (x1 x86 x7)))))
(assert (not (and (and (and (= (x1 x113 x113) x7) (= x108 (x1 x72 x72))) (= (x1 x108 x113) x86)) (= x72 (x1 x7 x113)))))
(assert (not (and (= x113 (x1 x7 x72)) (and (and (= (x1 x72 x72) x7) (= x108 (x1 x113 x113))) (= x86 (x1 x108 x72))))))
(assert (not (and (and (= (x1 x108 x72) x113) (and (= x108 (x1 x7 x7)) (= (x1 x72 x72) x86))) (= x7 (x1 x86 x72)))))
(assert (not (and (= (x1 x108 x86) x72) (and (and (= (x1 x86 x86) x108) (= x113 (x1 x72 x72))) (= x7 (x1 x113 x86))))))
(assert (not (and (and (= (x1 x108 x113) x7) (and (= x72 (x1 x113 x113)) (= (x1 x86 x86) x108))) (= x86 (x1 x72 x113)))))
(assert (or (and (not (= (x1 x72 x72) x72)) (and (and (and (not (= x108 (x1 x108 x72))) (not (= (x1 x113 x72) x113))) (not (= x7 (x1 x7 x72)))) (not (= (x1 x86 x72) x86)))) (or (and (not (= x72 (x1 x72 x86))) (and (and (and (not (= (x1 x113 x86) x113)) (not (= x108 (x1 x108 x86)))) (not (= x7 (x1 x7 x86)))) (not (= (x1 x86 x86) x86)))) (or (or (and (not (= (x1 x72 x113) x72)) (and (and (not (= (x1 x7 x113) x7)) (and (not (= x113 (x1 x113 x113))) (not (= x108 (x1 x108 x113))))) (not (= x86 (x1 x86 x113))))) (and (not (= x72 (x1 x72 x108))) (and (not (= x86 (x1 x86 x108))) (and (not (= (x1 x7 x108) x7)) (and (not (= x113 (x1 x113 x108))) (not (= x108 (x1 x108 x108)))))))) (and (and (not (= (x1 x86 x7) x86)) (and (and (not (= x113 (x1 x113 x7))) (not (= (x1 x108 x7) x108))) (not (= x7 (x1 x7 x7))))) (not (= (x1 x72 x7) x72)))))))
(assert (not (and (and (and (= (x1 x7 x7) x86) (= (x1 x108 x108) x113)) (= (x1 x86 x108) x72)) (= x7 (x1 x113 x108)))))
(assert (not (and (= x7 (x1 x113 x86)) (and (and (= (x1 x86 x86) x113) (= (x1 x7 x7) x108)) (= (x1 x108 x86) x72)))))
(assert (not (and (and (and (= (x1 x86 x86) x108) (= x113 (x1 x7 x7))) (= (x1 x113 x86) x72)) (= (x1 x108 x86) x7))))
(assert (let ((x62 (x1 x7 x108)) (x32 (x1 x86 x7)) (x70 (x1 x108 x7)) (x132 (x1 x86 x108)) (x128 (x1 x86 x72)) (x26 (x1 x113 x72)) (x130 (x1 x108 x72)) (x31 (x1 x7 x7)) (x126 (x1 x72 x113)) (x13 (x1 x7 x113)) (x27 (x1 x113 x86)) (x131 (x1 x7 x86)) (x43 (x1 x86 x86)) (x129 (x1 x72 x108)) (x103 (x1 x86 x113)) (x119 (x1 x72 x86)) (x111 (x1 x7 x72)) (x150 (x1 x113 x113)) (x127 (x1 x108 x113)) (x18 (x1 x108 x86)) (x87 (x1 x72 x7)) (x84 (x1 x113 x7)) (x88 (x1 x108 x108)) (x54 (x1 x113 x108)) (x96 (x1 x72 x72))) (and (and (and (and (and (and (and (and (or (or (or (= x150 x7) (or (= x150 x108) (= x150 x113))) (= x86 x150)) (= x150 x72)) (or (= x54 x72) (or (= x86 x54) (or (= x54 x7) (or (= x54 x113) (= x108 x54)))))) (or (or (or (= x84 x7) (or (= x84 x108) (= x113 x84))) (= x86 x84)) (= x72 x84))) (or (or (or (= x7 x27) (or (= x27 x113) (= x27 x108))) (= x27 x86)) (= x27 x72))) (or (= x26 x72) (or (or (= x7 x26) (or (= x108 x26) (= x113 x26))) (= x26 x86)))) (and (or (= x130 x72) (or (= x86 x130) (or (or (= x130 x108) (= x130 x113)) (= x7 x130)))) (and (and (or (or (= x86 x70) (or (= x7 x70) (or (= x70 x108) (= x113 x70)))) (= x72 x70)) (and (or (= x72 x88) (or (= x86 x88) (or (= x7 x88) (or (= x88 x113) (= x88 x108))))) (or (= x127 x72) (or (= x127 x86) (or (= x127 x7) (or (= x127 x113) (= x108 x127))))))) (or (or (= x86 x18) (or (= x7 x18) (or (= x108 x18) (= x113 x18)))) (= x18 x72))))) (and (or (or (or (= x7 x111) (or (= x113 x111) (= x111 x108))) (= x111 x86)) (= x72 x111)) (and (or (= x131 x72) (or (= x86 x131) (or (= x131 x7) (or (= x108 x131) (= x113 x131))))) (and (or (or (= x86 x31) (or (or (= x31 x108) (= x113 x31)) (= x31 x7))) (= x31 x72)) (and (or (or (or (or (= x62 x108) (= x62 x113)) (= x7 x62)) (= x62 x86)) (= x72 x62)) (or (= x72 x13) (or (or (= x13 x7) (or (= x108 x13) (= x13 x113))) (= x86 x13)))))))) (and (and (and (and (or (or (= x86 x132) (or (= x7 x132) (or (= x132 x113) (= x108 x132)))) (= x132 x72)) (or (or (= x86 x103) (or (= x103 x7) (or (= x103 x113) (= x103 x108)))) (= x72 x103))) (or (= x32 x72) (or (= x32 x86) (or (or (= x32 x108) (= x113 x32)) (= x7 x32))))) (or (= x43 x72) (or (or (or (= x43 x108) (= x43 x113)) (= x7 x43)) (= x43 x86)))) (or (= x128 x72) (or (or (= x7 x128) (or (= x128 x113) (= x108 x128))) (= x86 x128))))) (and (and (and (or (or (or (= x7 x87) (or (= x108 x87) (= x113 x87))) (= x86 x87)) (= x72 x87)) (and (or (or (= x86 x126) (or (= x126 x7) (or (= x126 x113) (= x126 x108)))) (= x72 x126)) (or (or (= x86 x129) (or (or (= x129 x113) (= x108 x129)) (= x7 x129))) (= x72 x129)))) (or (= x119 x72) (or (= x86 x119) (or (= x119 x7) (or (= x108 x119) (= x113 x119)))))) (or (= x96 x72) (or (or (or (= x108 x96) (= x96 x113)) (= x96 x7)) (= x86 x96)))))))
(assert (not (and (and (= (x1 x113 x72) x108) (and (= (x1 x72 x72) x86) (= (x1 x7 x7) x113))) (= (x1 x86 x72) x7))))
(assert (let ((x129 (x1 x108 x72)) (x35 (x1 x72 x108)) (x134 (x1 x72 x86)) (x66 (x1 x72 x72)) (x26 (x1 x113 x86)) (x127 (x1 x113 x72)) (x39 (x1 x7 x7)) (x18 (x1 x7 x113)) (x84 (x1 x113 x108)) (x128 (x1 x108 x7)) (x54 (x1 x113 x113)) (x126 (x1 x108 x86)) (x27 (x1 x113 x7)) (x130 (x1 x86 x113)) (x114 (x1 x86 x86)) (x106 (x1 x86 x72)) (x80 (x1 x86 x7)) (x123 (x1 x72 x7)) (x61 (x1 x7 x72)) (x70 (x1 x108 x113)) (x13 (x1 x72 x113)) (x110 (x1 x86 x108)) (x43 (x1 x108 x108)) (x36 (x1 x7 x86)) (x96 (x1 x7 x108))) (let ((x115 (= x86 x43)) (x45 (= x72 x36)) (x8 (= x86 x39)) (x152 (= x72 x84)) (x103 (= x84 x113)) (x121 (= x13 x72)) (x95 (= x129 x7)) (x90 (= x113 x128)) (x154 (= x18 x7)) (x49 (= x110 x113)) (x118 (= x129 x86)) (x77 (= x108 x66)) (x81 (= x113 x106)) (x116 (= x61 x7)) (x51 (= x130 x108)) (x11 (= x86 x128)) (x109 (= x86 x36)) (x12 (= x86 x123)) (x122 (= x72 x114)) (x101 (= x7 x106)) (x59 (= x108 x114)) (x155 (= x108 x39)) (x44 (= x72 x126)) (x56 (= x86 x61)) (x17 (= x128 x108)) (x135 (= x36 x108)) (x29 (= x108 x134)) (x97 (= x108 x129)) (x137 (= x126 x7)) (x119 (= x43 x108)) (x153 (= x26 x113)) (x148 (= x61 x113)) (x41 (= x7 x43)) (x100 (= x126 x86)) (x117 (= x110 x86)) (x76 (= x127 x86)) (x22 (= x96 x72)) (x57 (= x113 x80)) (x9 (= x27 x113)) (x63 (= x108 x123)) (x28 (= x36 x113)) (x75 (= x106 x108)) (x150 (= x113 x54)) (x125 (= x35 x108)) (x112 (= x106 x72)) (x64 (= x127 x108)) (x47 (= x113 x66)) (x34 (= x113 x18)) (x48 (= x86 x96)) (x42 (= x35 x72)) (x10 (= x128 x72)) (x99 (= x108 x61)) (x33 (= x7 x27)) (x146 (= x39 x72)) (x78 (= x7 x80)) (x23 (= x114 x7)) (x52 (= x86 x114)) (x111 (= x70 x113)) (x89 (= x86 x26)) (x3 (= x36 x7)) (x132 (= x43 x113)) (x120 (= x123 x113)) (x124 (= x128 x7)) (x156 (= x13 x108)) (x93 (= x96 x113)) (x5 (= x84 x7)) (x82 (= x113 x114)) (x71 (= x110 x7)) (x62 (= x54 x7)) (x53 (= x129 x72)) (x4 (= x27 x72)) (x107 (= x86 x66)) (x31 (= x86 x54)) (x138 (= x26 x7)) (x30 (= x113 x13)) (x147 (= x130 x86)) (x91 (= x7 x35)) (x15 (= x134 x113)) (x87 (= x108 x84)) (x37 (= x113 x126)) (x58 (= x110 x108)) (x142 (= x86 x80)) (x2 (= x7 x70)) (x136 (= x7 x130)) (x67 (= x35 x86)) (x83 (= x80 x72)) (x131 (= x72 x54)) (x139 (= x113 x35)) (x60 (= x72 x130)) (x92 (= x134 x7)) (x68 (= x72 x61)) (x140 (= x86 x13)) (x25 (= x108 x96)) (x151 (= x7 x127)) (x98 (= x18 x108)) (x21 (= x39 x113)) (x104 (= x127 x72)) (x19 (= x27 x108)) (x79 (= x18 x86)) (x88 (= x108 x54)) (x149 (= x129 x113)) (x144 (= x27 x86)) (x157 (= x72 x70)) (x73 (= x113 x127)) (x6 (= x39 x7)) (x69 (= x72 x110)) (x16 (= x108 x80)) (x102 (= x26 x108)) (x24 (= x134 x86)) (x143 (= x72 x66)) (x38 (= x72 x134)) (x85 (= x66 x7)) (x158 (= x86 x70)) (x133 (= x7 x13)) (x141 (= x7 x123)) (x14 (= x86 x106)) (x32 (= x108 x70)) (x94 (= x96 x7)) (x46 (= x43 x72)) (x55 (= x72 x123)) (x65 (= x18 x72)) (x145 (= x113 x130)) (x74 (= x26 x72)) (x20 (= x126 x108)) (x105 (= x84 x86))) (and (and (and (and (and (and (and (or (or (or x79 (or x158 x31)) x147) x140) (or (or (or x144 (or x105 x31)) x89) x76)) (and (and (or (or x138 (or (or x5 x62) x33)) x151) (or (or x136 (or (or x62 x2) x154)) x133)) (and (and (or x64 (or x102 (or (or x88 x87) x19))) (or (or (or (or x88 x32) x98) x51) x156)) (and (or (or x145 (or x34 (or x111 x150))) x30) (or (or x153 (or (or x103 x150) x9)) x73))))) (and (or (or (or x4 (or x131 x152)) x74) x104) (or (or x60 (or (or x157 x131) x65)) x121))) (and (and (or (or x44 (or x10 (or x46 x157))) x53) (or (or (or (or x152 x46) x22) x69) x42)) (and (and (and (or (or x71 (or (or x41 x5) x94)) x91) (or (or (or (or x41 x2) x124) x137) x95)) (and (and (or (or (or x93 (or x103 x132)) x49) x139) (or (or (or x90 (or x111 x132)) x37) x149)) (and (or x97 (or x20 (or x17 (or x119 x32)))) (or x125 (or (or x25 (or x119 x87)) x58))))) (and (or x118 (or x100 (or (or x158 x115) x11))) (or x67 (or (or (or x115 x105) x48) x117)))))) (and (and (or (or (or x146 (or x10 x4)) x83) x55) (or (or x45 (or (or x22 x65) x146)) x68)) (and (and (and (and (or (or x16 (or (or x19 x17) x155)) x63) (or (or (or x155 (or x98 x25)) x135) x99)) (and (or x120 (or (or (or x9 x90) x21) x57)) (or (or (or (or x93 x34) x21) x28) x148))) (and (or x116 (or (or (or x94 x154) x6) x3)) (or (or x78 (or (or x33 x124) x6)) x141))) (and (or (or (or (or x144 x11) x8) x142) x12) (or (or (or x8 (or x79 x48)) x109) x56))))) (and (and (or (or (or x83 (or x69 x60)) x122) x112) (or x38 (or x122 (or (or x74 x44) x45)))) (and (and (and (or x101 (or x23 (or x78 (or x71 x136)))) (or (or (or x3 (or x138 x137)) x23) x92)) (and (and (or x75 (or x59 (or (or x51 x58) x16))) (or (or x59 (or x135 (or x20 x102))) x29)) (and (or x81 (or x82 (or x57 (or x145 x49)))) (or x15 (or (or x28 (or x153 x37)) x82))))) (and (or (or (or x142 (or x117 x147)) x52) x14) (or x24 (or x52 (or x109 (or x89 x100)))))))) (and (and (or x143 (or (or (or x53 x104) x68) x112)) (or x143 (or x38 (or (or x121 x42) x55)))) (and (and (or (or (or (or x140 x67) x12) x24) x107) (or x107 (or x14 (or (or x76 x118) x56)))) (and (and (or x85 (or (or (or x95 x151) x116) x101)) (or (or (or (or x91 x133) x141) x92) x85)) (and (and (or x47 (or (or (or x73 x149) x148) x81)) (or x47 (or (or x120 (or x139 x30)) x15))) (and (or (or (or (or x97 x64) x99) x75) x77) (or (or x29 (or x63 (or x156 x125))) x77))))))))))
(assert (not (and (and (= x7 (x1 x108 x72)) (and (= (x1 x72 x72) x86) (= (x1 x113 x113) x108))) (= x113 (x1 x86 x72)))))
(assert (not (and (and (= x108 (x1 x7 x72)) (and (= x113 (x1 x72 x72)) (= x7 (x1 x86 x86)))) (= (x1 x113 x72) x86))))
(assert (not (and (and (= x113 (x1 x86 x72)) (and (= (x1 x72 x72) x7) (= x86 (x1 x108 x108)))) (= (x1 x7 x72) x108))))
(assert (not (and (= (x1 x7 x113) x108) (and (and (= (x1 x108 x108) x86) (= (x1 x113 x113) x7)) (= x72 (x1 x86 x113))))))
(assert (not (and (and (and (= x86 (x1 x113 x113)) (= x7 (x1 x108 x108))) (= x72 (x1 x86 x108))) (= x113 (x1 x7 x108)))))
(assert (let ((x119 (x1 x86 x72)) (x26 (x1 x72 x113)) (x13 (x1 x113 x7)) (x32 (x1 x7 x86)) (x130 (x1 x72 x108)) (x87 (x1 x7 x72)) (x129 (x1 x108 x72)) (x128 (x1 x72 x86)) (x18 (x1 x86 x108)) (x127 (x1 x113 x108)) (x84 (x1 x7 x113)) (x27 (x1 x86 x113)) (x31 (x1 x7 x7)) (x132 (x1 x108 x86)) (x103 (x1 x113 x86)) (x111 (x1 x72 x7)) (x131 (x1 x86 x7)) (x150 (x1 x113 x113)) (x54 (x1 x108 x113)) (x96 (x1 x72 x72)) (x126 (x1 x113 x72)) (x88 (x1 x108 x108)) (x70 (x1 x7 x108)) (x43 (x1 x86 x86)) (x62 (x1 x108 x7))) (and (and (and (and (not (= x96 x111)) (and (not (= x128 x111)) (and (and (and (and (and (not (= x26 x128)) (and (not (= x26 x130)) (not (= x111 x26)))) (not (= x26 x96))) (not (= x111 x130))) (not (= x130 x128))) (not (= x130 x96))))) (not (= x96 x128))) (and (and (not (= x119 x43)) (and (and (not (= x43 x131)) (and (not (= x18 x119)) (and (not (= x18 x43)) (and (not (= x18 x131)) (and (and (not (= x43 x27)) (and (not (= x131 x27)) (not (= x18 x27)))) (not (= x119 x27))))))) (not (= x119 x131)))) (and (and (not (= x32 x87)) (and (and (and (and (not (= x70 x32)) (and (and (not (= x87 x84)) (and (and (not (= x70 x84)) (not (= x31 x84))) (not (= x32 x84)))) (not (= x31 x70)))) (not (= x87 x70))) (not (= x31 x32))) (not (= x87 x31)))) (and (and (and (and (not (= x132 x62)) (and (and (not (= x132 x88)) (and (not (= x62 x88)) (and (and (not (= x54 x132)) (and (not (= x88 x54)) (not (= x54 x62)))) (not (= x54 x129))))) (not (= x129 x88)))) (not (= x62 x129))) (not (= x132 x129))) (and (not (= x103 x126)) (and (not (= x126 x13)) (and (and (not (= x126 x127)) (and (and (and (and (not (= x150 x103)) (and (not (= x13 x150)) (not (= x150 x127)))) (not (= x150 x126))) (not (= x127 x13))) (not (= x127 x103)))) (not (= x13 x103))))))))) (and (and (and (and (and (not (= x18 x130)) (and (not (= x130 x70)) (and (and (and (and (not (= x70 x88)) (and (not (= x127 x130)) (and (not (= x127 x18)) (and (not (= x70 x127)) (not (= x127 x88)))))) (not (= x18 x88))) (not (= x88 x130))) (not (= x70 x18))))) (and (and (not (= x26 x84)) (and (and (and (and (not (= x54 x84)) (and (and (not (= x27 x150)) (and (not (= x54 x150)) (not (= x84 x150)))) (not (= x150 x26)))) (not (= x54 x27))) (not (= x54 x26))) (not (= x27 x84)))) (not (= x26 x27)))) (and (not (= x131 x111)) (and (not (= x31 x111)) (and (not (= x131 x31)) (and (and (and (and (and (not (= x13 x131)) (and (not (= x31 x13)) (not (= x62 x13)))) (not (= x13 x111))) (not (= x31 x62))) (not (= x131 x62))) (not (= x62 x111))))))) (and (and (not (= x32 x128)) (and (and (and (and (and (and (and (not (= x103 x132)) (not (= x103 x32))) (not (= x43 x103))) (not (= x103 x128))) (not (= x32 x132))) (not (= x43 x132))) (not (= x128 x132))) (not (= x32 x43)))) (not (= x43 x128)))) (and (not (= x119 x96)) (and (and (and (and (not (= x119 x129)) (and (not (= x129 x87)) (and (and (not (= x119 x126)) (and (not (= x126 x87)) (not (= x126 x129)))) (not (= x96 x126))))) (not (= x129 x96))) (not (= x87 x119))) (not (= x96 x87))))))))
(assert (not (and (= x108 (x1 x72 x86)) (and (= x7 (x1 x113 x86)) (and (= x72 (x1 x86 x86)) (= (x1 x108 x108) x113))))))
(assert (not (and (= x72 (x1 x86 x113)) (and (= x108 (x1 x7 x113)) (and (= (x1 x72 x72) x7) (= x86 (x1 x113 x113)))))))
(assert (not (and (= x86 (x1 x108 x7)) (and (and (= x72 (x1 x86 x86)) (= x108 (x1 x7 x7))) (= (x1 x72 x7) x113)))))
(assert (or (or (and (and (not (= x86 (x1 (x1 x86 x86) x86))) (and (not (= (x1 (x1 x86 x7) x86) x7)) (and (not (= x108 (x1 (x1 x86 x108) x86))) (not (= x113 (x1 (x1 x86 x113) x86)))))) (not (= (x1 (x1 x86 x72) x86) x72))) (or (and (not (= x72 (x1 (x1 x7 x72) x7))) (and (not (= (x1 (x1 x7 x86) x7) x86)) (and (not (= (x1 (x1 x7 x7) x7) x7)) (and (not (= x108 (x1 (x1 x7 x108) x7))) (not (= (x1 (x1 x7 x113) x7) x113)))))) (or (and (and (and (not (= (x1 (x1 x108 x7) x108) x7)) (and (not (= x113 (x1 (x1 x108 x113) x108))) (not (= (x1 (x1 x108 x108) x108) x108)))) (not (= (x1 (x1 x108 x86) x108) x86))) (not (= (x1 (x1 x108 x72) x108) x72))) (and (not (= x72 (x1 (x1 x113 x72) x113))) (and (and (and (not (= (x1 (x1 x113 x108) x113) x108)) (not (= (x1 (x1 x113 x113) x113) x113))) (not (= x7 (x1 (x1 x113 x7) x113)))) (not (= x86 (x1 (x1 x113 x86) x113)))))))) (and (and (not (= (x1 (x1 x72 x86) x72) x86)) (and (not (= (x1 (x1 x72 x7) x72) x7)) (and (not (= (x1 (x1 x72 x108) x72) x108)) (not (= x113 (x1 (x1 x72 x113) x72)))))) (not (= (x1 (x1 x72 x72) x72) x72)))))
(assert (not (and (and (= (x1 x108 x86) x7) (and (= (x1 x86 x86) x113) (= x108 (x1 x72 x72)))) (= (x1 x113 x86) x72))))
(assert (not (and (and (and (= (x1 x86 x86) x72) (= x113 (x1 x108 x108))) (= x7 (x1 x72 x108))) (= x86 (x1 x113 x108)))))
(assert (not (and (= (x1 x86 x72) x113) (and (= x108 (x1 x7 x72)) (and (= (x1 x113 x113) x7) (= x86 (x1 x72 x72)))))))
(assert (not (and (and (and (= x7 (x1 x108 x108)) (= (x1 x72 x72) x86)) (= (x1 x7 x72) x113)) (= x108 (x1 x86 x72)))))
(assert (not (and (and (and (= x86 (x1 x7 x7)) (= x72 (x1 x113 x113))) (= (x1 x72 x7) x108)) (= x113 (x1 x86 x7)))))
(assert (not (and (and (and (= x72 (x1 x113 x113)) (= (x1 x108 x108) x86)) (= x7 (x1 x72 x108))) (= (x1 x86 x108) x113))))
(assert (not (and (= (x1 x86 x7) x108) (and (and (= x86 (x1 x7 x7)) (= (x1 x108 x108) x72)) (= (x1 x72 x7) x113)))))
(assert (not (and (and (and (= x72 (x1 x7 x7)) (= x108 (x1 x86 x86))) (= (x1 x108 x7) x113)) (= (x1 x72 x7) x86))))
(assert (not (and (and (and (= x108 (x1 x72 x72)) (= x113 (x1 x7 x7))) (= x86 (x1 x113 x72))) (= x7 (x1 x108 x72)))))
(assert (not (and (and (= x7 (x1 x86 x72)) (and (= (x1 x72 x72) x108) (= x86 (x1 x113 x113)))) (= x113 (x1 x108 x72)))))
(assert (not (and (and (and (= (x1 x108 x108) x7) (= x113 (x1 x72 x72))) (= (x1 x7 x72) x86)) (= x108 (x1 x113 x72)))))
(assert (not (and (= (x1 x113 x7) x72) (and (and (= (x1 x72 x72) x108) (= (x1 x7 x7) x113)) (= x86 (x1 x108 x7))))))
(assert (not (and (and (= x86 (x1 x113 x7)) (and (= (x1 x72 x72) x113) (= x108 (x1 x7 x7)))) (= x72 (x1 x108 x7)))))
(assert (not (and (and (= x86 (x1 x113 x7)) (and (= x72 (x1 x7 x7)) (= x113 (x1 x108 x108)))) (= (x1 x72 x7) x108))))
(assert (not (and (and (and (= x72 (x1 x86 x86)) (= x7 (x1 x108 x108))) (= (x1 x72 x108) x113)) (= (x1 x7 x108) x86))))
(assert (let ((x27 (x1 x86 x86)) (x26 (x1 x72 x72)) (x84 (x1 x7 x7)) (x54 (x1 x108 x108)) (x150 (x1 x113 x113))) (or (and (not (= x72 x26)) (and (not (= x27 x72)) (and (and (not (= x150 x72)) (not (= x72 x54))) (not (= x72 x84))))) (or (or (and (not (= x7 x26)) (and (and (and (not (= x7 x150)) (not (= x54 x7))) (not (= x7 x84))) (not (= x7 x27)))) (or (and (not (= x26 x108)) (and (and (not (= x84 x108)) (and (not (= x54 x108)) (not (= x108 x150)))) (not (= x27 x108)))) (and (and (and (not (= x113 x84)) (and (not (= x113 x150)) (not (= x54 x113)))) (not (= x27 x113))) (not (= x113 x26))))) (and (not (= x86 x26)) (and (not (= x27 x86)) (and (not (= x86 x84)) (and (not (= x150 x86)) (not (= x86 x54))))))))))
(assert (let ((x152 (x1 x72 x113)) (x5 (x1 x108 x113)) (x124 (x1 x72 x7)) (x33 (x1 x7 x72)) (x80 (x1 x7 x7)) (x105 (x1 x113 x86)) (x21 (x1 x7 x108)) (x110 (x1 x113 x113)) (x41 (x1 x113 x7)) (x98 (x1 x108 x86)) (x65 (x1 x86 x86)) (x39 (x1 x108 x72)) (x158 (x1 x7 x113)) (x90 (x1 x108 x7)) (x157 (x1 x113 x72)) (x2 (x1 x113 x108)) (x115 (x1 x86 x113)) (x10 (x1 x72 x86)) (x154 (x1 x7 x86)) (x25 (x1 x86 x108)) (x93 (x1 x108 x108)) (x36 (x1 x72 x108)) (x4 (x1 x86 x72)) (x94 (x1 x86 x7)) (x51 (x1 x72 x72))) (let ((x102 (= x93 x7)) (x141 (= x110 x72)) (x43 (= x36 x113)) (x59 (= x7 x21)) (x56 (= x94 x72)) (x76 (= x25 x72)) (x151 (= x2 x72)) (x121 (= x72 x152)) (x142 (= x7 x157)) (x135 (= x41 x7)) (x106 (= x2 x7)) (x58 (= x108 x51)) (x123 (= x80 x108)) (x9 (= x93 x108)) (x147 (= x65 x7)) (x73 (= x86 x80)) (x88 (= x21 x113)) (x140 (= x90 x72)) (x149 (= x115 x86)) (x101 (= x72 x41)) (x38 (= x39 x72)) (x48 (= x108 x25)) (x75 (= x86 x33)) (x138 (= x25 x7)) (x143 (= x72 x51)) (x125 (= x86 x154)) (x107 (= x65 x72)) (x18 (= x113 x80)) (x89 (= x36 x7)) (x55 (= x36 x72)) (x77 (= x10 x86)) (x117 (= x7 x152)) (x130 (= x115 x113)) (x114 (= x5 x7)) (x146 (= x108 x152)) (x8 (= x154 x108)) (x97 (= x86 x39)) (x87 (= x10 x113)) (x29 (= x86 x152)) (x109 (= x124 x7)) (x92 (= x72 x5)) (x67 (= x72 x80)) (x3 (= x7 x94)) (x83 (= x7 x51)) (x12 (= x115 x72)) (x54 (= x5 x113)) (x79 (= x108 x105)) (x112 (= x4 x72)) (x42 (= x157 x72)) (x144 (= x98 x108)) (x136 (= x7 x80)) (x134 (= x90 x7)) (x61 (= x108 x158)) (x148 (= x105 x86)) (x37 (= x108 x33)) (x32 (= x157 x113)) (x11 (= x108 x94)) (x69 (= x7 x4)) (x139 (= x86 x41)) (x16 (= x7 x110)) (x100 (= x7 x39)) (x17 (= x108 x21)) (x47 (= x98 x86)) (x26 (= x113 x158)) (x127 (= x113 x41)) (x62 (= x25 x113)) (x15 (= x86 x90)) (x68 (= x10 x72)) (x132 (= x113 x152)) (x63 (= x86 x65)) (x82 (= x4 x108)) (x104 (= x72 x124)) (x24 (= x105 x72)) (x31 (= x98 x113)) (x145 (= x108 x157)) (x137 (= x98 x7)) (x19 (= x41 x108)) (x99 (= x86 x124)) (x23 (= x154 x7)) (x153 (= x124 x108)) (x84 (= x2 x113)) (x155 (= x90 x108)) (x129 (= x113 x33)) (x128 (= x39 x113)) (x57 (= x108 x39)) (x27 (= x93 x113)) (x52 (= x33 x7)) (x96 (= x113 x51)) (x150 (= x110 x113)) (x116 (= x158 x72)) (x45 (= x86 x2)) (x122 (= x93 x86)) (x66 (= x86 x157)) (x133 (= x4 x86)) (x44 (= x86 x5)) (x70 (= x113 x90)) (x46 (= x108 x5)) (x28 (= x10 x108)) (x118 (= x72 x98)) (x20 (= x158 x7)) (x35 (= x110 x108)) (x95 (= x72 x93)) (x119 (= x113 x4)) (x53 (= x72 x33)) (x111 (= x113 x154)) (x22 (= x65 x108)) (x126 (= x113 x124)) (x156 (= x86 x94)) (x34 (= x108 x2)) (x71 (= x115 x7)) (x14 (= x72 x154)) (x91 (= x86 x51)) (x74 (= x110 x86)) (x120 (= x86 x21)) (x85 (= x21 x72)) (x13 (= x105 x113)) (x103 (= x113 x65)) (x78 (= x7 x105)) (x131 (= x94 x113)) (x49 (= x108 x36)) (x30 (= x158 x86)) (x6 (= x108 x115)) (x60 (= x7 x10)) (x81 (= x25 x86)) (x64 (= x36 x86))) (and (and (or (or (and x91 x91) (or (or (or (and x64 x97) (and x29 x66)) (and x99 x75)) (and x77 x133))) (or (or (or (or (or (or (and x15 x120) (or (and x45 x44) (and x122 x122))) (and x81 x47)) (and x97 x64)) (or (or (or (or (and x74 x74) (and x44 x45)) (and x139 x30)) (and x149 x148)) (and x29 x66))) (or (or (or (and x73 x73) (or (and x139 x30) (and x15 x120))) (and x125 x156)) (and x99 x75))) (or (and x77 x133) (or (and x63 x63) (or (or (and x47 x81) (and x149 x148)) (and x156 x125)))))) (and (and (or (or (or (or (or (or (and x6 x79) (and x48 x144)) (and x11 x8)) (and x22 x22)) (and x28 x82)) (or (or (or (or (or (and x155 x17) (or (and x9 x9) (and x34 x46))) (and x48 x144)) (and x57 x49)) (or (or (or (or (and x46 x34) (and x35 x35)) (and x61 x19)) (and x79 x6)) (and x146 x145))) (or (or (and x11 x8) (or (or (and x61 x19) (and x155 x17)) (and x123 x123))) (and x37 x153)))) (or (and x58 x58) (or (and x28 x82) (or (or (and x49 x57) (and x146 x145)) (and x37 x153))))) (or (or (and x96 x96) (or (and x87 x119) (or (or (and x32 x132) (and x128 x43)) (and x129 x126)))) (or (or (and x87 x119) (or (and x103 x103) (or (and x131 x111) (or (and x62 x31) (and x13 x130))))) (or (or (or (and x32 x132) (or (or (and x127 x26) (or (and x54 x84) (and x150 x150))) (and x130 x13))) (or (and x128 x43) (or (and x31 x62) (or (or (and x54 x84) (and x27 x27)) (and x88 x70))))) (or (or (or (and x18 x18) (or (and x127 x26) (and x88 x70))) (and x111 x131)) (and x129 x126)))))) (or (or (or (and x60 x69) (or (and x147 x147) (or (or (and x138 x137) (and x78 x71)) (and x3 x23)))) (or (or (or (or (or (or (and x106 x114) (and x16 x16)) (and x135 x20)) (and x78 x71)) (and x117 x142)) (or (and x100 x89) (or (and x137 x138) (or (and x134 x59) (or (and x102 x102) (and x106 x114)))))) (or (and x52 x109) (or (or (or (and x134 x59) (and x20 x135)) (and x136 x136)) (and x23 x3))))) (or (and x83 x83) (or (or (or (and x142 x117) (and x89 x100)) (and x52 x109)) (and x60 x69)))))) (or (or (or (or (or (or (or (or (and x92 x151) (and x95 x95)) (and x85 x140)) (and x118 x76)) (and x55 x38)) (or (and x42 x121) (or (and x12 x24) (or (or (and x92 x151) (and x141 x141)) (and x101 x116))))) (or (and x104 x53) (or (and x14 x56) (or (or (and x101 x116) (and x85 x140)) (and x67 x67))))) (or (or (or (and x14 x56) (or (and x24 x12) (and x76 x118))) (and x107 x107)) (and x68 x112))) (or (and x143 x143) (or (and x68 x112) (or (or (and x121 x42) (and x38 x55)) (and x53 x104)))))))))
(assert (not (and (and (= (x1 x108 x7) x86) (and (= (x1 x113 x113) x108) (= (x1 x7 x7) x72))) (= (x1 x72 x7) x113))))
(assert (not (and (= x113 (x1 x72 x86)) (and (= (x1 x7 x86) x108) (and (= x7 (x1 x113 x113)) (= (x1 x86 x86) x72))))))
(assert (not (and (and (and (= x7 (x1 x108 x108)) (= x72 (x1 x113 x113))) (= x86 (x1 x72 x108))) (= x113 (x1 x7 x108)))))
(assert (and (not (= x86 x72)) (and (not (= x7 x72)) (and (and (not (= x72 x108)) (and (not (= x108 x86)) (and (not (= x108 x7)) (and (not (= x72 x113)) (and (and (not (= x113 x7)) (not (= x108 x113))) (not (= x113 x86))))))) (not (= x7 x86))))))
(assert (not (and (and (= (x1 x113 x72) x7) (and (= (x1 x86 x86) x113) (= x108 (x1 x72 x72)))) (= x86 (x1 x108 x72)))))
(assert (not (and (and (and (= x7 (x1 x113 x113)) (= x108 (x1 x72 x72))) (= x86 (x1 x7 x72))) (= x113 (x1 x108 x72)))))
(assert (not (and (and (and (= (x1 x86 x86) x113) (= x108 (x1 x7 x7))) (= (x1 x113 x7) x72)) (= (x1 x108 x7) x86))))
(assert (not (and (and (and (= x72 (x1 x108 x108)) (= x86 (x1 x113 x113))) (= (x1 x86 x108) x7)) (= (x1 x72 x108) x113))))
(assert (not (and (= x72 (x1 x86 x7)) (and (= (x1 x108 x7) x113) (and (= (x1 x7 x7) x86) (= x108 (x1 x72 x72)))))))
(assert (not (and (and (= (x1 x108 x113) x72) (and (= x108 (x1 x7 x7)) (= x86 (x1 x113 x113)))) (= x7 (x1 x86 x113)))))
(assert (not (and (= x7 (x1 x113 x72)) (and (= (x1 x108 x72) x86) (and (= (x1 x7 x7) x108) (= x113 (x1 x72 x72)))))))
(assert (not (and (= x72 (x1 x7 x86)) (and (and (= x108 (x1 x72 x72)) (= (x1 x86 x86) x7)) (= (x1 x108 x86) x113)))))
(assert (not (and (and (= (x1 x113 x72) x108) (and (= x7 (x1 x72 x72)) (= x113 (x1 x86 x86)))) (= (x1 x7 x72) x86))))
(assert (not (and (and (and (= (x1 x86 x86) x7) (= (x1 x108 x108) x113)) (= x72 (x1 x7 x108))) (= x86 (x1 x113 x108)))))
(assert (not (and (= (x1 x108 x113) x86) (and (= x7 (x1 x72 x113)) (and (= x108 (x1 x113 x113)) (= (x1 x86 x86) x72))))))
(assert (not (and (= x86 (x1 x7 x108)) (and (and (= (x1 x108 x108) x7) (= x113 (x1 x86 x86))) (= x72 (x1 x113 x108))))))
(assert (not (and (= x72 (x1 x113 x86)) (and (= x108 (x1 x7 x86)) (and (= x113 (x1 x86 x86)) (= (x1 x72 x72) x7))))))
(assert (not (and (and (and (= x72 (x1 x108 x108)) (= x7 (x1 x86 x86))) (= (x1 x7 x108) x113)) (= x86 (x1 x72 x108)))))
(assert (not (and (and (= (x1 x7 x86) x72) (and (= (x1 x108 x108) x7) (= x113 (x1 x86 x86)))) (= (x1 x113 x86) x108))))
(assert (not (and (= (x1 x108 x113) x72) (and (and (= (x1 x113 x113) x108) (= (x1 x72 x72) x86)) (= (x1 x86 x113) x7)))))
(assert (not (and (and (and (= (x1 x113 x113) x7) (= (x1 x86 x86) x72)) (= x108 (x1 x72 x113))) (= (x1 x7 x113) x86))))
(assert (not (and (= x113 (x1 x72 x108)) (and (and (= (x1 x113 x113) x7) (= x72 (x1 x108 x108))) (= x86 (x1 x7 x108))))))
(assert (not (and (and (and (= x108 (x1 x7 x7)) (= x86 (x1 x72 x72))) (= x113 (x1 x86 x7))) (= x72 (x1 x108 x7)))))
(assert (not (and (and (and (= (x1 x113 x113) x86) (= (x1 x108 x108) x72)) (= x7 (x1 x72 x113))) (= (x1 x86 x113) x108))))
(assert (not (and (= (x1 x72 x113) x108) (and (and (= x7 (x1 x108 x108)) (= (x1 x113 x113) x72)) (= x86 (x1 x7 x113))))))
(assert (not (and (and (and (= (x1 x7 x7) x86) (= x72 (x1 x113 x113))) (= x108 (x1 x86 x113))) (= x7 (x1 x72 x113)))))
(assert (not (and (and (and (= (x1 x108 x108) x86) (= (x1 x7 x7) x113)) (= x72 (x1 x113 x108))) (= x7 (x1 x86 x108)))))
(assert (not (and (and (= (x1 x113 x7) x72) (and (= (x1 x108 x108) x113) (= (x1 x7 x7) x86))) (= (x1 x86 x7) x108))))
(assert (not (and (and (and (= x86 (x1 x7 x7)) (= (x1 x72 x72) x113)) (= (x1 x86 x72) x108)) (= (x1 x113 x72) x7))))
(assert (not (and (and (= x113 (x1 x86 x72)) (and (= (x1 x7 x7) x86) (= x108 (x1 x72 x72)))) (= (x1 x108 x72) x7))))
(assert (not (and (= x86 (x1 x108 x72)) (and (= (x1 x7 x72) x113) (and (= (x1 x86 x86) x7) (= x108 (x1 x72 x72)))))))
(assert (not (and (and (and (= x86 (x1 x108 x108)) (= x72 (x1 x113 x113))) (= (x1 x86 x113) x7)) (= (x1 x72 x113) x108))))
(assert (not (and (and (= x86 (x1 x72 x113)) (and (= x108 (x1 x113 x113)) (= x72 (x1 x7 x7)))) (= x7 (x1 x108 x113)))))
(assert (not (and (= x108 (x1 x86 x72)) (and (and (= (x1 x72 x72) x86) (= x113 (x1 x108 x108))) (= x7 (x1 x113 x72))))))
(assert (not (and (= (x1 x86 x7) x113) (and (= x72 (x1 x108 x7)) (and (= (x1 x113 x113) x108) (= x86 (x1 x7 x7)))))))
(assert (not (and (= x7 (x1 x108 x113)) (and (= (x1 x86 x113) x72) (and (= x86 (x1 x7 x7)) (= x108 (x1 x113 x113)))))))
(assert (not (and (= (x1 x113 x7) x72) (and (= (x1 x86 x7) x108) (and (= (x1 x7 x7) x113) (= (x1 x72 x72) x86))))))
(assert (not (and (= (x1 x108 x86) x113) (and (and (= x72 (x1 x113 x113)) (= (x1 x86 x86) x108)) (= (x1 x72 x86) x7)))))
(assert (not (and (and (and (= (x1 x113 x113) x72) (= (x1 x7 x7) x108)) (= (x1 x72 x7) x86)) (= (x1 x108 x7) x113))))
(assert (let ((x18 (x1 x7 x7)) (x62 (x1 x86 x108)) (x103 (x1 x86 x86)) (x84 (x1 x113 x108)) (x31 (x1 x108 x86)) (x111 (x1 x7 x86)) (x127 (x1 x113 x7)) (x132 (x1 x72 x113)) (x119 (x1 x86 x72)) (x54 (x1 x108 x113)) (x130 (x1 x86 x113)) (x27 (x1 x108 x108)) (x96 (x1 x72 x72)) (x150 (x1 x113 x113)) (x13 (x1 x113 x86)) (x43 (x1 x72 x108)) (x128 (x1 x108 x72)) (x126 (x1 x72 x7)) (x32 (x1 x113 x72)) (x131 (x1 x86 x7)) (x26 (x1 x7 x113)) (x87 (x1 x72 x86)) (x129 (x1 x7 x72)) (x88 (x1 x7 x108)) (x70 (x1 x108 x7))) (or (or (or (or (and (and (and (= x70 x88) (and (= x27 x27) (= x84 x54))) (= x31 x62)) (= x43 x128)) (and (and (and (and (= x54 x84) (= x150 x150)) (= x26 x127)) (= x13 x130)) (= x32 x132))) (and (and (= x131 x111) (and (= x18 x18) (and (= x26 x127) (= x70 x88)))) (= x129 x126))) (and (and (and (and (= x13 x130) (= x62 x31)) (= x111 x131)) (= x103 x103)) (= x87 x119))) (and (and (= x119 x87) (and (= x126 x129) (and (= x132 x32) (= x128 x43)))) (= x96 x96)))))
(assert (not (and (= (x1 x72 x113) x7) (and (= x86 (x1 x108 x113)) (and (= (x1 x113 x113) x72) (= x108 (x1 x7 x7)))))))
(assert (not (and (and (= x72 (x1 x7 x113)) (and (= x86 (x1 x113 x113)) (= x7 (x1 x108 x108)))) (= x108 (x1 x86 x113)))))
(assert (not (and (and (= (x1 x108 x113) x7) (and (= (x1 x72 x72) x108) (= x86 (x1 x113 x113)))) (= (x1 x86 x113) x72))))
(assert (not (and (= (x1 x113 x72) x86) (and (and (= (x1 x72 x72) x113) (= x108 (x1 x86 x86))) (= (x1 x108 x72) x7)))))
(assert (let ((x150 (x1 x113 x113)) (x54 (x1 x108 x108)) (x26 (x1 x72 x72)) (x84 (x1 x7 x7)) (x27 (x1 x86 x86))) (or (or (or (not (= (x1 x84 x84) x84)) (or (not (= x54 (x1 x54 x54))) (not (= x150 (x1 x150 x150))))) (not (= (x1 x27 x27) x27))) (not (= x26 (x1 x26 x26))))))
(assert (not (and (and (= (x1 x108 x86) x72) (and (= x7 (x1 x86 x86)) (= x108 (x1 x113 x113)))) (= (x1 x7 x86) x113))))
(assert (not (and (and (= (x1 x113 x86) x108) (and (= x113 (x1 x72 x72)) (= x7 (x1 x86 x86)))) (= (x1 x7 x86) x72))))
(assert (not (and (= x113 (x1 x72 x7)) (and (= x108 (x1 x86 x7)) (and (= (x1 x7 x7) x72) (= x86 (x1 x113 x113)))))))
(assert (not (and (and (= x72 (x1 x108 x7)) (and (= (x1 x7 x7) x113) (= (x1 x86 x86) x108))) (= x86 (x1 x113 x7)))))
(assert (not (and (and (and (= (x1 x113 x113) x108) (= x72 (x1 x86 x86))) (= x7 (x1 x108 x86))) (= (x1 x72 x86) x113))))
(assert (not (and (and (= (x1 x108 x113) x72) (and (= (x1 x113 x113) x7) (= x108 (x1 x86 x86)))) (= x86 (x1 x7 x113)))))
(assert (not (and (= x108 (x1 x7 x86)) (and (= x72 (x1 x113 x86)) (and (= x7 (x1 x86 x86)) (= (x1 x108 x108) x113))))))
(assert (not (and (and (and (= x7 (x1 x113 x113)) (= (x1 x86 x86) x108)) (= x72 (x1 x7 x86))) (= x113 (x1 x108 x86)))))
(assert (not (and (= (x1 x108 x86) x72) (and (and (= x7 (x1 x72 x72)) (= (x1 x86 x86) x108)) (= x113 (x1 x7 x86))))))
(assert (not (and (and (and (= (x1 x7 x7) x113) (= x72 (x1 x86 x86))) (= x108 (x1 x72 x7))) (= x86 (x1 x113 x7)))))
(assert (not (and (and (and (= x86 (x1 x108 x108)) (= x113 (x1 x72 x72))) (= (x1 x86 x72) x7)) (= (x1 x113 x72) x108))))
(assert (and (and (and (or (= x7 (x1 x72 (x1 x7 x72))) (or (or (or (= x7 (x1 x113 (x1 x7 x113))) (= (x1 x108 (x1 x7 x108)) x7)) (= x7 (x1 x7 (x1 x7 x7)))) (= (x1 x86 (x1 x7 x86)) x7))) (and (or (= x108 (x1 x72 (x1 x108 x72))) (or (= x108 (x1 x86 (x1 x108 x86))) (or (or (= x108 (x1 x113 (x1 x108 x113))) (= (x1 x108 (x1 x108 x108)) x108)) (= x108 (x1 x7 (x1 x108 x7)))))) (or (or (= (x1 x86 (x1 x113 x86)) x113) (or (or (= x113 (x1 x108 (x1 x113 x108))) (= x113 (x1 x113 (x1 x113 x113)))) (= (x1 x7 (x1 x113 x7)) x113))) (= x113 (x1 x72 (x1 x113 x72)))))) (or (or (= x86 (x1 x86 (x1 x86 x86))) (or (= (x1 x7 (x1 x86 x7)) x86) (or (= x86 (x1 x108 (x1 x86 x108))) (= x86 (x1 x113 (x1 x86 x113)))))) (= x86 (x1 x72 (x1 x86 x72))))) (or (= x72 (x1 x72 (x1 x72 x72))) (or (or (= x72 (x1 x7 (x1 x72 x7))) (or (= x72 (x1 x113 (x1 x72 x113))) (= (x1 x108 (x1 x72 x108)) x72))) (= x72 (x1 x86 (x1 x72 x86)))))))
(assert (not (and (and (and (= (x1 x86 x86) x7) (= x72 (x1 x113 x113))) (= x108 (x1 x7 x113))) (= (x1 x72 x113) x86))))
(assert (not (and (= (x1 x72 x108) x7) (and (= (x1 x113 x108) x86) (and (= (x1 x108 x108) x72) (= (x1 x7 x7) x113))))))
(assert (let ((x84 (x1 x7 x113)) (x32 (x1 x7 x86)) (x119 (x1 x86 x72)) (x88 (x1 x108 x108)) (x111 (x1 x72 x7)) (x62 (x1 x108 x7)) (x26 (x1 x72 x113)) (x127 (x1 x113 x108)) (x27 (x1 x86 x113)) (x129 (x1 x108 x72)) (x13 (x1 x113 x7)) (x131 (x1 x86 x7)) (x18 (x1 x86 x108)) (x70 (x1 x7 x108)) (x150 (x1 x113 x113)) (x87 (x1 x7 x72)) (x103 (x1 x113 x86)) (x132 (x1 x108 x86)) (x96 (x1 x72 x72)) (x126 (x1 x113 x72)) (x43 (x1 x86 x86)) (x130 (x1 x72 x108)) (x128 (x1 x72 x86)) (x31 (x1 x7 x7)) (x54 (x1 x108 x113))) (or (or (and (and (and (and (not (= (x1 x103 x103) x113)) (not (= (x1 x132 x132) x108))) (not (= (x1 x32 x32) x7))) (not (= x86 (x1 x43 x43)))) (not (= x72 (x1 x128 x128)))) (or (and (and (and (and (not (= x113 (x1 x13 x13))) (not (= (x1 x62 x62) x108))) (not (= x7 (x1 x31 x31)))) (not (= x86 (x1 x131 x131)))) (not (= x72 (x1 x111 x111)))) (or (and (not (= x72 (x1 x130 x130))) (and (not (= (x1 x18 x18) x86)) (and (and (not (= x108 (x1 x88 x88))) (not (= (x1 x127 x127) x113))) (not (= x7 (x1 x70 x70)))))) (and (not (= x72 (x1 x26 x26))) (and (and (and (not (= x113 (x1 x150 x150))) (not (= (x1 x54 x54) x108))) (not (= x7 (x1 x84 x84)))) (not (= (x1 x27 x27) x86))))))) (and (not (= x72 (x1 x96 x96))) (and (not (= (x1 x119 x119) x86)) (and (and (not (= (x1 x129 x129) x108)) (not (= (x1 x126 x126) x113))) (not (= (x1 x87 x87) x7))))))))
(assert (let ((x43 (x1 x86 x86)) (x31 (x1 x7 x7)) (x128 (x1 x72 x86)) (x111 (x1 x72 x7)) (x87 (x1 x7 x72)) (x150 (x1 x113 x113)) (x129 (x1 x108 x72)) (x26 (x1 x72 x113)) (x27 (x1 x86 x113)) (x54 (x1 x108 x113)) (x18 (x1 x86 x108)) (x119 (x1 x86 x72)) (x62 (x1 x108 x7)) (x13 (x1 x113 x7)) (x126 (x1 x113 x72)) (x127 (x1 x113 x108)) (x88 (x1 x108 x108)) (x131 (x1 x86 x7)) (x84 (x1 x7 x113)) (x130 (x1 x72 x108)) (x96 (x1 x72 x72)) (x103 (x1 x113 x86)) (x70 (x1 x7 x108)) (x132 (x1 x108 x86)) (x32 (x1 x7 x86))) (or (or (or (or (and (and (and (and (not (= (x1 x150 x113) x150)) (not (= x54 (x1 x54 x108)))) (not (= (x1 x84 x7) x84))) (not (= (x1 x27 x86) x27))) (not (= (x1 x26 x72) x26))) (and (and (not (= x18 (x1 x18 x86))) (and (and (not (= (x1 x88 x108) x88)) (not (= (x1 x127 x113) x127))) (not (= x70 (x1 x70 x7))))) (not (= x130 (x1 x130 x72))))) (and (not (= (x1 x111 x72) x111)) (and (not (= (x1 x131 x86) x131)) (and (not (= x31 (x1 x31 x7))) (and (not (= x62 (x1 x62 x108))) (not (= x13 (x1 x13 x113)))))))) (and (not (= (x1 x128 x72) x128)) (and (not (= x43 (x1 x43 x86))) (and (and (not (= x132 (x1 x132 x108))) (not (= x103 (x1 x103 x113)))) (not (= (x1 x32 x7) x32)))))) (and (not (= (x1 x96 x72) x96)) (and (not (= x119 (x1 x119 x86))) (and (and (not (= x126 (x1 x126 x113))) (not (= (x1 x129 x108) x129))) (not (= (x1 x87 x7) x87))))))))
(assert (not (and (and (= x113 (x1 x7 x86)) (and (= x7 (x1 x108 x108)) (= x72 (x1 x86 x86)))) (= (x1 x72 x86) x108))))
(assert (not (and (and (and (= (x1 x7 x7) x113) (= x86 (x1 x108 x108))) (= (x1 x86 x7) x72)) (= (x1 x113 x7) x108))))
(assert (not (and (= (x1 x113 x108) x72) (and (and (= (x1 x72 x72) x7) (= (x1 x108 x108) x113)) (= x86 (x1 x7 x108))))))
(assert (not (and (and (= x108 (x1 x86 x113)) (and (= x7 (x1 x113 x113)) (= x86 (x1 x72 x72)))) (= x72 (x1 x7 x113)))))
(assert (not (and (and (and (= x86 (x1 x7 x7)) (= (x1 x108 x108) x72)) (= x113 (x1 x86 x108))) (= (x1 x72 x108) x7))))
(assert (not (and (and (= (x1 x108 x86) x113) (and (= x108 (x1 x7 x7)) (= (x1 x86 x86) x72))) (= (x1 x72 x86) x7))))
(assert (not (and (and (and (= (x1 x86 x86) x113) (= (x1 x7 x7) x72)) (= (x1 x113 x7) x108)) (= x86 (x1 x72 x7)))))
(assert (not (and (= x72 (x1 x86 x108)) (and (and (= x86 (x1 x108 x108)) (= (x1 x72 x72) x113)) (= (x1 x113 x108) x7)))))
(assert (not (and (= (x1 x86 x108) x72) (and (and (= (x1 x108 x108) x86) (= (x1 x72 x72) x7)) (= (x1 x7 x108) x113)))))
(assert (not (and (and (= (x1 x72 x86) x7) (and (= (x1 x108 x108) x72) (= (x1 x86 x86) x113))) (= x108 (x1 x113 x86)))))
(assert (not (and (and (= x108 (x1 x86 x72)) (and (= x86 (x1 x113 x113)) (= (x1 x72 x72) x7))) (= x113 (x1 x7 x72)))))
(assert (or (or (and (not (= x72 (x1 x86 (x1 x86 x72)))) (and (not (= (x1 x86 (x1 x86 x86)) x86)) (and (and (not (= x108 (x1 x86 (x1 x86 x108)))) (not (= (x1 x86 (x1 x86 x113)) x113))) (not (= (x1 x86 (x1 x86 x7)) x7))))) (or (or (and (and (and (not (= x7 (x1 x113 (x1 x113 x7)))) (and (not (= x108 (x1 x113 (x1 x113 x108)))) (not (= x113 (x1 x113 (x1 x113 x113)))))) (not (= x86 (x1 x113 (x1 x113 x86))))) (not (= (x1 x113 (x1 x113 x72)) x72))) (and (and (not (= x86 (x1 x108 (x1 x108 x86)))) (and (and (not (= x108 (x1 x108 (x1 x108 x108)))) (not (= (x1 x108 (x1 x108 x113)) x113))) (not (= (x1 x108 (x1 x108 x7)) x7)))) (not (= (x1 x108 (x1 x108 x72)) x72)))) (and (and (not (= (x1 x7 (x1 x7 x86)) x86)) (and (and (not (= x113 (x1 x7 (x1 x7 x113)))) (not (= x108 (x1 x7 (x1 x7 x108))))) (not (= (x1 x7 (x1 x7 x7)) x7)))) (not (= (x1 x7 (x1 x7 x72)) x72))))) (and (not (= (x1 x72 (x1 x72 x72)) x72)) (and (and (and (not (= x108 (x1 x72 (x1 x72 x108)))) (not (= x113 (x1 x72 (x1 x72 x113))))) (not (= x7 (x1 x72 (x1 x72 x7))))) (not (= x86 (x1 x72 (x1 x72 x86))))))))
(assert (not (and (= x108 (x1 x72 x7)) (and (= (x1 x86 x7) x113) (and (= x86 (x1 x108 x108)) (= x72 (x1 x7 x7)))))))
(assert (not (and (and (and (= x7 (x1 x108 x108)) (= x86 (x1 x72 x72))) (= x113 (x1 x86 x108))) (= (x1 x7 x108) x72))))
(assert (not (and (and (= x72 (x1 x86 x7)) (and (= x86 (x1 x113 x113)) (= x108 (x1 x7 x7)))) (= x113 (x1 x108 x7)))))
(assert (not (and (= (x1 x108 x113) x72) (and (and (= (x1 x113 x113) x108) (= (x1 x72 x72) x7)) (= x86 (x1 x7 x113))))))
(assert (not (and (and (and (= x7 (x1 x72 x72)) (= x108 (x1 x86 x86))) (= x113 (x1 x108 x72))) (= x86 (x1 x7 x72)))))
(assert (not (and (= x7 (x1 x113 x108)) (and (= (x1 x72 x108) x86) (and (= x113 (x1 x108 x108)) (= x72 (x1 x7 x7)))))))
(assert (not (and (and (and (= (x1 x113 x113) x86) (= (x1 x7 x7) x72)) (= x108 (x1 x72 x113))) (= (x1 x86 x113) x7))))
(assert (not (and (= x113 (x1 x86 x108)) (and (and (= x86 (x1 x108 x108)) (= x7 (x1 x113 x113))) (= x72 (x1 x7 x108))))))
(assert (not (and (= (x1 x113 x7) x108) (and (= (x1 x72 x7) x86) (and (= (x1 x7 x7) x113) (= (x1 x108 x108) x72))))))
(assert (not (and (= x7 (x1 x108 x86)) (and (= (x1 x72 x86) x113) (and (= x72 (x1 x7 x7)) (= (x1 x86 x86) x108))))))
(assert (not (and (and (and (= (x1 x7 x7) x72) (= x113 (x1 x86 x86))) (= (x1 x72 x86) x108)) (= (x1 x113 x86) x7))))
(assert (not (and (and (= (x1 x72 x113) x86) (and (= (x1 x108 x108) x72) (= (x1 x113 x113) x7))) (= x108 (x1 x7 x113)))))
(assert (not (and (and (and (= (x1 x108 x108) x113) (= x7 (x1 x72 x72))) (= (x1 x113 x72) x86)) (= (x1 x7 x72) x108))))
(assert (or (or (or (= (x1 x7 x7) x7) (or (= x108 (x1 x108 x108)) (= x113 (x1 x113 x113)))) (= x86 (x1 x86 x86))) (= (x1 x72 x72) x72)))
(assert (not (and (= x7 (x1 x72 x86)) (and (and (= (x1 x7 x7) x113) (= x72 (x1 x86 x86))) (= x108 (x1 x113 x86))))))
(check-sat)
(exit)
